902 10
3 3 3 3 3 3 3 3 3 3
0  0 0 0 0 0 0 0 0 0 0  90 2 12 22 32 42 52 62 72 82 92 102 112 122 132 142 152 162 172 182 192 202 212 222 232 242 252 262 272 282 292 302 312 322 332 342 352 362 372 382 392 402 412 422 432 442 452 462 472 482 492 502 512 522 532 542 552 562 572 582 592 602 612 622 632 642 652 662 672 682 692 702 712 722 732 742 752 762 772 782 792 802 812 822 832 842 852 862 872 882 892
89  0 0 0 0 0 0 1 0 0 0  1 3
58  0 1 0 0 0 0 0 0 0 0  1 4
97  0 0 0 0 1 0 0 0 0 0  1 5
44  0 0 1 0 0 0 0 0 0 0  1 6
77  0 0 0 0 0 0 0 0 1 0  1 7
5  0 0 0 1 0 0 0 0 0 0  1 8
9  1 0 0 0 0 0 0 0 0 0  1 9
58  0 0 0 0 0 1 0 0 0 0  1 10
96  0 0 0 0 0 0 0 0 0 1  1 11
84  0 0 0 0 0 0 0 1 0 0  1 902
31  0 0 0 0 0 0 0 1 0 0  1 13
81  0 0 1 0 0 0 0 0 0 0  1 14
73  0 0 0 0 0 0 0 0 0 1  1 15
15  0 0 0 0 1 0 0 0 0 0  1 16
87  0 1 0 0 0 0 0 0 0 0  1 17
39  0 0 0 0 0 1 0 0 0 0  1 18
57  0 0 0 0 0 0 0 0 1 0  1 19
77  1 0 0 0 0 0 0 0 0 0  1 20
85  0 0 0 1 0 0 0 0 0 0  1 21
21  0 0 0 0 0 0 1 0 0 0  1 902
48  0 0 1 0 0 0 0 0 0 0  1 23
71  0 0 0 0 0 1 0 0 0 0  1 24
40  1 0 0 0 0 0 0 0 0 0  1 25
70  0 0 0 1 0 0 0 0 0 0  1 26
49  0 1 0 0 0 0 0 0 0 0  1 27
22  0 0 0 0 0 0 1 0 0 0  1 28
10  0 0 0 0 1 0 0 0 0 0  1 29
34  0 0 0 0 0 0 0 0 1 0  1 30
80  0 0 0 0 0 0 0 1 0 0  1 31
82  0 0 0 0 0 0 0 0 0 1  1 902
11  0 0 0 0 1 0 0 0 0 0  1 33
72  0 0 0 0 0 0 1 0 0 0  1 34
62  0 0 0 0 0 0 0 1 0 0  1 35
55  1 0 0 0 0 0 0 0 0 0  1 36
17  0 0 1 0 0 0 0 0 0 0  1 37
75  0 0 0 0 0 1 0 0 0 0  1 38
7  0 0 0 1 0 0 0 0 0 0  1 39
91  0 1 0 0 0 0 0 0 0 0  1 40
35  0 0 0 0 0 0 0 0 0 1  1 41
47  0 0 0 0 0 0 0 0 1 0  1 902
64  1 0 0 0 0 0 0 0 0 0  1 43
71  0 0 0 0 0 0 1 0 0 0  1 44
12  0 0 0 0 1 0 0 0 0 0  1 45
90  0 1 0 0 0 0 0 0 0 0  1 46
94  0 0 1 0 0 0 0 0 0 0  1 47
75  0 0 0 1 0 0 0 0 0 0  1 48
20  0 0 0 0 0 0 0 0 0 1  1 49
15  0 0 0 0 0 0 0 0 1 0  1 50
50  0 0 0 0 0 1 0 0 0 0  1 51
67  0 0 0 0 0 0 0 1 0 0  1 902
29  0 0 1 0 0 0 0 0 0 0  1 53
93  0 0 0 0 0 0 1 0 0 0  1 54
68  0 0 0 1 0 0 0 0 0 0  1 55
93  0 0 0 0 0 1 0 0 0 0  1 56
57  0 1 0 0 0 0 0 0 0 0  1 57
77  0 0 0 0 0 0 0 0 1 0  1 58
52  1 0 0 0 0 0 0 0 0 0  1 59
7  0 0 0 0 0 0 0 0 0 1  1 60
58  0 0 0 0 1 0 0 0 0 0  1 61
70  0 0 0 0 0 0 0 1 0 0  1 902
26  0 0 0 0 1 0 0 0 0 0  1 63
27  0 0 0 1 0 0 0 0 0 0  1 64
63  0 1 0 0 0 0 0 0 0 0  1 65
6  0 0 0 0 0 1 0 0 0 0  1 66
87  0 0 0 0 0 0 1 0 0 0  1 67
56  0 0 0 0 0 0 0 1 0 0  1 68
48  0 0 0 0 0 0 0 0 1 0  1 69
36  0 0 0 0 0 0 0 0 0 1  1 70
95  1 0 0 0 0 0 0 0 0 0  1 71
82  0 0 1 0 0 0 0 0 0 0  1 902
8  0 1 0 0 0 0 0 0 0 0  1 73
76  0 0 0 0 0 0 0 1 0 0  1 74
76  0 0 0 1 0 0 0 0 0 0  1 75
30  0 0 0 0 1 0 0 0 0 0  1 76
84  0 0 0 0 0 0 1 0 0 0  1 77
78  0 0 0 0 0 0 0 0 0 1  1 78
41  0 0 0 0 0 0 0 0 1 0  1 79
36  1 0 0 0 0 0 0 0 0 0  1 80
36  0 0 1 0 0 0 0 0 0 0  1 81
15  0 0 0 0 0 1 0 0 0 0  1 902
13  0 0 0 1 0 0 0 0 0 0  1 83
29  0 0 0 0 0 0 0 0 1 0  1 84
75  1 0 0 0 0 0 0 0 0 0  1 85
81  0 0 1 0 0 0 0 0 0 0  1 86
78  0 1 0 0 0 0 0 0 0 0  1 87
88  0 0 0 0 0 1 0 0 0 0  1 88
54  0 0 0 0 1 0 0 0 0 0  1 89
40  0 0 0 0 0 0 0 0 0 1  1 90
13  0 0 0 0 0 0 0 1 0 0  1 91
82  0 0 0 0 0 0 1 0 0 0  1 902
52  1 0 0 0 0 0 0 0 0 0  1 93
6  0 0 1 0 0 0 0 0 0 0  1 94
6  0 0 0 1 0 0 0 0 0 0  1 95
82  0 0 0 0 0 1 0 0 0 0  1 96
64  0 0 0 0 0 0 1 0 0 0  1 97
88  0 0 0 0 0 0 0 0 0 1  1 98
54  0 0 0 0 0 0 0 0 1 0  1 99
54  0 0 0 0 1 0 0 0 0 0  1 100
32  0 0 0 0 0 0 0 1 0 0  1 101
26  0 1 0 0 0 0 0 0 0 0  1 902
62  0 0 0 0 0 0 0 0 1 0  1 103
35  0 1 0 0 0 0 0 0 0 0  1 104
72  0 0 0 0 1 0 0 0 0 0  1 105
69  0 0 0 0 0 0 0 1 0 0  1 106
62  1 0 0 0 0 0 0 0 0 0  1 107
32  0 0 0 0 0 1 0 0 0 0  1 108
5  0 0 0 0 0 0 0 0 0 1  1 109
61  0 0 0 1 0 0 0 0 0 0  1 110
67  0 0 1 0 0 0 0 0 0 0  1 111
93  0 0 0 0 0 0 1 0 0 0  1 902
78  0 0 1 0 0 0 0 0 0 0  1 113
11  0 0 0 1 0 0 0 0 0 0  1 114
82  0 0 0 0 0 0 0 1 0 0  1 115
7  0 0 0 0 1 0 0 0 0 0  1 116
72  0 1 0 0 0 0 0 0 0 0  1 117
64  0 0 0 0 0 0 0 0 1 0  1 118
90  0 0 0 0 0 0 0 0 0 1  1 119
85  1 0 0 0 0 0 0 0 0 0  1 120
88  0 0 0 0 0 1 0 0 0 0  1 121
63  0 0 0 0 0 0 1 0 0 0  1 902
50  0 0 0 0 0 0 0 1 0 0  1 123
28  0 0 0 0 1 0 0 0 0 0  1 124
35  0 0 0 1 0 0 0 0 0 0  1 125
66  0 1 0 0 0 0 0 0 0 0  1 126
27  0 0 1 0 0 0 0 0 0 0  1 127
49  0 0 0 0 0 0 0 0 1 0  1 128
11  0 0 0 0 0 0 0 0 0 1  1 129
88  0 0 0 0 0 0 1 0 0 0  1 130
31  0 0 0 0 0 1 0 0 0 0  1 131
44  1 0 0 0 0 0 0 0 0 0  1 902
62  0 0 0 0 1 0 0 0 0 0  1 133
39  0 0 0 0 0 1 0 0 0 0  1 134
76  1 0 0 0 0 0 0 0 0 0  1 135
14  0 0 1 0 0 0 0 0 0 0  1 136
56  0 0 0 0 0 0 1 0 0 0  1 137
97  0 0 0 1 0 0 0 0 0 0  1 138
7  0 1 0 0 0 0 0 0 0 0  1 139
69  0 0 0 0 0 0 0 1 0 0  1 140
66  0 0 0 0 0 0 0 0 0 1  1 141
47  0 0 0 0 0 0 0 0 1 0  1 902
47  0 0 0 0 0 0 1 0 0 0  1 143
41  0 0 1 0 0 0 0 0 0 0  1 144
64  1 0 0 0 0 0 0 0 0 0  1 145
58  0 0 0 0 0 0 0 1 0 0  1 146
57  0 0 0 0 0 0 0 0 0 1  1 147
93  0 0 0 0 0 0 0 0 1 0  1 148
69  0 0 0 1 0 0 0 0 0 0  1 149
53  0 0 0 0 0 1 0 0 0 0  1 150
18  0 1 0 0 0 0 0 0 0 0  1 151
79  0 0 0 0 1 0 0 0 0 0  1 902
76  0 0 0 0 0 0 0 1 0 0  1 153
81  0 0 0 0 0 0 0 0 0 1  1 154
76  1 0 0 0 0 0 0 0 0 0  1 155
61  0 0 0 0 0 0 1 0 0 0  1 156
77  0 0 0 0 1 0 0 0 0 0  1 157
26  0 0 0 0 0 0 0 0 1 0  1 158
74  0 0 1 0 0 0 0 0 0 0  1 159
22  0 0 0 0 0 1 0 0 0 0  1 160
58  0 1 0 0 0 0 0 0 0 0  1 161
78  0 0 0 1 0 0 0 0 0 0  1 902
30  0 0 0 0 0 0 1 0 0 0  1 163
72  0 0 0 0 0 0 0 0 1 0  1 164
43  0 0 0 1 0 0 0 0 0 0  1 165
65  1 0 0 0 0 0 0 0 0 0  1 166
16  0 1 0 0 0 0 0 0 0 0  1 167
92  0 0 0 0 1 0 0 0 0 0  1 168
95  0 0 0 0 0 1 0 0 0 0  1 169
29  0 0 0 0 0 0 0 0 0 1  1 170
99  0 0 1 0 0 0 0 0 0 0  1 171
64  0 0 0 0 0 0 0 1 0 0  1 902
35  0 1 0 0 0 0 0 0 0 0  1 173
74  0 0 0 1 0 0 0 0 0 0  1 174
16  0 0 0 0 0 1 0 0 0 0  1 175
85  0 0 0 0 1 0 0 0 0 0  1 176
7  1 0 0 0 0 0 0 0 0 0  1 177
81  0 0 1 0 0 0 0 0 0 0  1 178
86  0 0 0 0 0 0 1 0 0 0  1 179
61  0 0 0 0 0 0 0 0 1 0  1 180
35  0 0 0 0 0 0 0 0 0 1  1 181
34  0 0 0 0 0 0 0 1 0 0  1 902
97  0 1 0 0 0 0 0 0 0 0  1 183
43  0 0 0 0 0 0 0 1 0 0  1 184
72  0 0 0 0 1 0 0 0 0 0  1 185
88  0 0 0 0 0 0 1 0 0 0  1 186
17  0 0 0 0 0 1 0 0 0 0  1 187
43  1 0 0 0 0 0 0 0 0 0  1 188
94  0 0 0 0 0 0 0 0 1 0  1 189
64  0 0 0 1 0 0 0 0 0 0  1 190
22  0 0 0 0 0 0 0 0 0 1  1 191
42  0 0 1 0 0 0 0 0 0 0  1 902
99  0 0 0 0 0 0 0 1 0 0  1 193
84  0 0 1 0 0 0 0 0 0 0  1 194
99  0 0 0 0 0 0 0 0 1 0  1 195
98  0 0 0 0 0 1 0 0 0 0  1 196
20  0 1 0 0 0 0 0 0 0 0  1 197
31  0 0 0 0 0 0 1 0 0 0  1 198
74  0 0 0 1 0 0 0 0 0 0  1 199
92  1 0 0 0 0 0 0 0 0 0  1 200
23  0 0 0 0 0 0 0 0 0 1  1 201
89  0 0 0 0 1 0 0 0 0 0  1 902
32  0 0 0 0 0 0 0 0 1 0  1 203
6  1 0 0 0 0 0 0 0 0 0  1 204
55  0 0 0 0 1 0 0 0 0 0  1 205
19  0 0 0 0 0 1 0 0 0 0  1 206
81  0 0 0 0 0 0 0 0 0 1  1 207
81  0 1 0 0 0 0 0 0 0 0  1 208
40  0 0 0 0 0 0 0 1 0 0  1 209
9  0 0 0 0 0 0 1 0 0 0  1 210
37  0 0 0 1 0 0 0 0 0 0  1 211
40  0 0 1 0 0 0 0 0 0 0  1 902
15  0 0 0 0 0 0 1 0 0 0  1 213
70  0 0 1 0 0 0 0 0 0 0  1 214
25  0 0 0 0 0 0 0 0 1 0  1 215
46  0 1 0 0 0 0 0 0 0 0  1 216
65  0 0 0 0 0 0 0 0 0 1  1 217
64  0 0 0 0 1 0 0 0 0 0  1 218
21  0 0 0 0 0 0 0 1 0 0  1 219
77  1 0 0 0 0 0 0 0 0 0  1 220
65  0 0 0 0 0 1 0 0 0 0  1 221
55  0 0 0 1 0 0 0 0 0 0  1 902
31  0 0 0 0 0 0 0 0 1 0  1 223
84  0 0 0 0 0 0 0 1 0 0  1 224
37  0 0 0 0 0 1 0 0 0 0  1 225
24  0 0 0 1 0 0 0 0 0 0  1 226
85  0 0 1 0 0 0 0 0 0 0  1 227
89  0 0 0 0 1 0 0 0 0 0  1 228
29  0 0 0 0 0 0 0 0 0 1  1 229
44  0 1 0 0 0 0 0 0 0 0  1 230
40  1 0 0 0 0 0 0 0 0 0  1 231
83  0 0 0 0 0 0 1 0 0 0  1 902
80  0 0 0 0 1 0 0 0 0 0  1 233
8  1 0 0 0 0 0 0 0 0 0  1 234
41  0 0 0 0 0 0 0 0 0 1  1 235
59  0 0 0 0 0 1 0 0 0 0  1 236
56  0 0 0 0 0 0 0 1 0 0  1 237
38  0 0 0 1 0 0 0 0 0 0  1 238
30  0 0 1 0 0 0 0 0 0 0  1 239
97  0 0 0 0 0 0 0 0 1 0  1 240
77  0 0 0 0 0 0 1 0 0 0  1 241
80  0 1 0 0 0 0 0 0 0 0  1 902
59  0 0 0 0 0 0 0 0 0 1  1 243
91  1 0 0 0 0 0 0 0 0 0  1 244
50  0 0 0 1 0 0 0 0 0 0  1 245
80  0 0 0 0 0 0 0 0 1 0  1 246
17  0 1 0 0 0 0 0 0 0 0  1 247
40  0 0 0 0 0 0 1 0 0 0  1 248
71  0 0 1 0 0 0 0 0 0 0  1 249
56  0 0 0 0 0 1 0 0 0 0  1 250
88  0 0 0 0 1 0 0 0 0 0  1 251
7  0 0 0 0 0 0 0 1 0 0  1 902
36  0 0 0 0 0 0 0 1 0 0  1 253
58  0 0 0 1 0 0 0 0 0 0  1 254
54  0 0 0 0 1 0 0 0 0 0  1 255
77  0 0 0 0 0 1 0 0 0 0  1 256
8  0 0 1 0 0 0 0 0 0 0  1 257
9  0 0 0 0 0 0 1 0 0 0  1 258
45  1 0 0 0 0 0 0 0 0 0  1 259
10  0 0 0 0 0 0 0 0 0 1  1 260
29  0 1 0 0 0 0 0 0 0 0  1 261
96  0 0 0 0 0 0 0 0 1 0  1 902
28  1 0 0 0 0 0 0 0 0 0  1 263
92  0 0 0 1 0 0 0 0 0 0  1 264
73  0 0 1 0 0 0 0 0 0 0  1 265
27  0 0 0 0 0 0 0 1 0 0  1 266
86  0 0 0 0 0 0 0 0 1 0  1 267
87  0 0 0 0 0 1 0 0 0 0  1 268
96  0 0 0 0 0 0 0 0 0 1  1 269
98  0 1 0 0 0 0 0 0 0 0  1 270
99  0 0 0 0 0 0 1 0 0 0  1 271
70  0 0 0 0 1 0 0 0 0 0  1 902
32  0 0 0 0 0 0 0 0 0 1  1 273
95  0 1 0 0 0 0 0 0 0 0  1 274
85  0 0 0 1 0 0 0 0 0 0  1 275
81  0 0 0 0 0 0 1 0 0 0  1 276
41  0 0 1 0 0 0 0 0 0 0  1 277
39  0 0 0 0 0 0 0 0 1 0  1 278
92  0 0 0 0 0 0 0 1 0 0  1 279
59  1 0 0 0 0 0 0 0 0 0  1 280
56  0 0 0 0 0 1 0 0 0 0  1 281
52  0 0 0 0 1 0 0 0 0 0  1 902
93  0 0 0 0 1 0 0 0 0 0  1 283
12  0 0 1 0 0 0 0 0 0 0  1 284
22  0 0 0 0 0 1 0 0 0 0  1 285
27  0 0 0 0 0 0 1 0 0 0  1 286
45  0 0 0 0 0 0 0 0 1 0  1 287
69  0 0 0 0 0 0 0 1 0 0  1 288
60  0 0 0 1 0 0 0 0 0 0  1 289
7  0 1 0 0 0 0 0 0 0 0  1 290
88  1 0 0 0 0 0 0 0 0 0  1 291
49  0 0 0 0 0 0 0 0 0 1  1 902
61  0 0 1 0 0 0 0 0 0 0  1 293
26  0 0 0 0 0 1 0 0 0 0  1 294
71  0 0 0 0 0 0 0 0 0 1  1 295
44  0 0 0 0 0 0 0 0 1 0  1 296
21  1 0 0 0 0 0 0 0 0 0  1 297
82  0 0 0 0 0 0 1 0 0 0  1 298
68  0 0 0 1 0 0 0 0 0 0  1 299
33  0 0 0 0 0 0 0 1 0 0  1 300
84  0 1 0 0 0 0 0 0 0 0  1 301
99  0 0 0 0 1 0 0 0 0 0  1 902
89  0 0 0 0 0 0 1 0 0 0  1 303
58  0 1 0 0 0 0 0 0 0 0  1 304
97  0 0 0 0 1 0 0 0 0 0  1 305
44  0 0 1 0 0 0 0 0 0 0  1 306
77  0 0 0 0 0 0 0 0 1 0  1 307
5  0 0 0 1 0 0 0 0 0 0  1 308
9  1 0 0 0 0 0 0 0 0 0  1 309
58  0 0 0 0 0 1 0 0 0 0  1 310
96  0 0 0 0 0 0 0 0 0 1  1 311
84  0 0 0 0 0 0 0 1 0 0  1 902
31  0 0 0 0 0 0 0 1 0 0  1 313
81  0 0 1 0 0 0 0 0 0 0  1 314
73  0 0 0 0 0 0 0 0 0 1  1 315
15  0 0 0 0 1 0 0 0 0 0  1 316
87  0 1 0 0 0 0 0 0 0 0  1 317
39  0 0 0 0 0 1 0 0 0 0  1 318
57  0 0 0 0 0 0 0 0 1 0  1 319
77  1 0 0 0 0 0 0 0 0 0  1 320
85  0 0 0 1 0 0 0 0 0 0  1 321
21  0 0 0 0 0 0 1 0 0 0  1 902
48  0 0 1 0 0 0 0 0 0 0  1 323
71  0 0 0 0 0 1 0 0 0 0  1 324
40  1 0 0 0 0 0 0 0 0 0  1 325
70  0 0 0 1 0 0 0 0 0 0  1 326
49  0 1 0 0 0 0 0 0 0 0  1 327
22  0 0 0 0 0 0 1 0 0 0  1 328
10  0 0 0 0 1 0 0 0 0 0  1 329
34  0 0 0 0 0 0 0 0 1 0  1 330
80  0 0 0 0 0 0 0 1 0 0  1 331
82  0 0 0 0 0 0 0 0 0 1  1 902
11  0 0 0 0 1 0 0 0 0 0  1 333
72  0 0 0 0 0 0 1 0 0 0  1 334
62  0 0 0 0 0 0 0 1 0 0  1 335
55  1 0 0 0 0 0 0 0 0 0  1 336
17  0 0 1 0 0 0 0 0 0 0  1 337
75  0 0 0 0 0 1 0 0 0 0  1 338
7  0 0 0 1 0 0 0 0 0 0  1 339
91  0 1 0 0 0 0 0 0 0 0  1 340
35  0 0 0 0 0 0 0 0 0 1  1 341
47  0 0 0 0 0 0 0 0 1 0  1 902
64  1 0 0 0 0 0 0 0 0 0  1 343
71  0 0 0 0 0 0 1 0 0 0  1 344
12  0 0 0 0 1 0 0 0 0 0  1 345
90  0 1 0 0 0 0 0 0 0 0  1 346
94  0 0 1 0 0 0 0 0 0 0  1 347
75  0 0 0 1 0 0 0 0 0 0  1 348
20  0 0 0 0 0 0 0 0 0 1  1 349
15  0 0 0 0 0 0 0 0 1 0  1 350
50  0 0 0 0 0 1 0 0 0 0  1 351
67  0 0 0 0 0 0 0 1 0 0  1 902
29  0 0 1 0 0 0 0 0 0 0  1 353
93  0 0 0 0 0 0 1 0 0 0  1 354
68  0 0 0 1 0 0 0 0 0 0  1 355
93  0 0 0 0 0 1 0 0 0 0  1 356
57  0 1 0 0 0 0 0 0 0 0  1 357
77  0 0 0 0 0 0 0 0 1 0  1 358
52  1 0 0 0 0 0 0 0 0 0  1 359
7  0 0 0 0 0 0 0 0 0 1  1 360
58  0 0 0 0 1 0 0 0 0 0  1 361
70  0 0 0 0 0 0 0 1 0 0  1 902
26  0 0 0 0 1 0 0 0 0 0  1 363
27  0 0 0 1 0 0 0 0 0 0  1 364
63  0 1 0 0 0 0 0 0 0 0  1 365
6  0 0 0 0 0 1 0 0 0 0  1 366
87  0 0 0 0 0 0 1 0 0 0  1 367
56  0 0 0 0 0 0 0 1 0 0  1 368
48  0 0 0 0 0 0 0 0 1 0  1 369
36  0 0 0 0 0 0 0 0 0 1  1 370
95  1 0 0 0 0 0 0 0 0 0  1 371
82  0 0 1 0 0 0 0 0 0 0  1 902
8  0 1 0 0 0 0 0 0 0 0  1 373
76  0 0 0 0 0 0 0 1 0 0  1 374
76  0 0 0 1 0 0 0 0 0 0  1 375
30  0 0 0 0 1 0 0 0 0 0  1 376
84  0 0 0 0 0 0 1 0 0 0  1 377
78  0 0 0 0 0 0 0 0 0 1  1 378
41  0 0 0 0 0 0 0 0 1 0  1 379
36  1 0 0 0 0 0 0 0 0 0  1 380
36  0 0 1 0 0 0 0 0 0 0  1 381
15  0 0 0 0 0 1 0 0 0 0  1 902
13  0 0 0 1 0 0 0 0 0 0  1 383
29  0 0 0 0 0 0 0 0 1 0  1 384
75  1 0 0 0 0 0 0 0 0 0  1 385
81  0 0 1 0 0 0 0 0 0 0  1 386
78  0 1 0 0 0 0 0 0 0 0  1 387
88  0 0 0 0 0 1 0 0 0 0  1 388
54  0 0 0 0 1 0 0 0 0 0  1 389
40  0 0 0 0 0 0 0 0 0 1  1 390
13  0 0 0 0 0 0 0 1 0 0  1 391
82  0 0 0 0 0 0 1 0 0 0  1 902
52  1 0 0 0 0 0 0 0 0 0  1 393
6  0 0 1 0 0 0 0 0 0 0  1 394
6  0 0 0 1 0 0 0 0 0 0  1 395
82  0 0 0 0 0 1 0 0 0 0  1 396
64  0 0 0 0 0 0 1 0 0 0  1 397
88  0 0 0 0 0 0 0 0 0 1  1 398
54  0 0 0 0 0 0 0 0 1 0  1 399
54  0 0 0 0 1 0 0 0 0 0  1 400
32  0 0 0 0 0 0 0 1 0 0  1 401
26  0 1 0 0 0 0 0 0 0 0  1 902
62  0 0 0 0 0 0 0 0 1 0  1 403
35  0 1 0 0 0 0 0 0 0 0  1 404
72  0 0 0 0 1 0 0 0 0 0  1 405
69  0 0 0 0 0 0 0 1 0 0  1 406
62  1 0 0 0 0 0 0 0 0 0  1 407
32  0 0 0 0 0 1 0 0 0 0  1 408
5  0 0 0 0 0 0 0 0 0 1  1 409
61  0 0 0 1 0 0 0 0 0 0  1 410
67  0 0 1 0 0 0 0 0 0 0  1 411
93  0 0 0 0 0 0 1 0 0 0  1 902
78  0 0 1 0 0 0 0 0 0 0  1 413
11  0 0 0 1 0 0 0 0 0 0  1 414
82  0 0 0 0 0 0 0 1 0 0  1 415
7  0 0 0 0 1 0 0 0 0 0  1 416
72  0 1 0 0 0 0 0 0 0 0  1 417
64  0 0 0 0 0 0 0 0 1 0  1 418
90  0 0 0 0 0 0 0 0 0 1  1 419
85  1 0 0 0 0 0 0 0 0 0  1 420
88  0 0 0 0 0 1 0 0 0 0  1 421
63  0 0 0 0 0 0 1 0 0 0  1 902
50  0 0 0 0 0 0 0 1 0 0  1 423
28  0 0 0 0 1 0 0 0 0 0  1 424
35  0 0 0 1 0 0 0 0 0 0  1 425
66  0 1 0 0 0 0 0 0 0 0  1 426
27  0 0 1 0 0 0 0 0 0 0  1 427
49  0 0 0 0 0 0 0 0 1 0  1 428
11  0 0 0 0 0 0 0 0 0 1  1 429
88  0 0 0 0 0 0 1 0 0 0  1 430
31  0 0 0 0 0 1 0 0 0 0  1 431
44  1 0 0 0 0 0 0 0 0 0  1 902
62  0 0 0 0 1 0 0 0 0 0  1 433
39  0 0 0 0 0 1 0 0 0 0  1 434
76  1 0 0 0 0 0 0 0 0 0  1 435
14  0 0 1 0 0 0 0 0 0 0  1 436
56  0 0 0 0 0 0 1 0 0 0  1 437
97  0 0 0 1 0 0 0 0 0 0  1 438
7  0 1 0 0 0 0 0 0 0 0  1 439
69  0 0 0 0 0 0 0 1 0 0  1 440
66  0 0 0 0 0 0 0 0 0 1  1 441
47  0 0 0 0 0 0 0 0 1 0  1 902
47  0 0 0 0 0 0 1 0 0 0  1 443
41  0 0 1 0 0 0 0 0 0 0  1 444
64  1 0 0 0 0 0 0 0 0 0  1 445
58  0 0 0 0 0 0 0 1 0 0  1 446
57  0 0 0 0 0 0 0 0 0 1  1 447
93  0 0 0 0 0 0 0 0 1 0  1 448
69  0 0 0 1 0 0 0 0 0 0  1 449
53  0 0 0 0 0 1 0 0 0 0  1 450
18  0 1 0 0 0 0 0 0 0 0  1 451
79  0 0 0 0 1 0 0 0 0 0  1 902
76  0 0 0 0 0 0 0 1 0 0  1 453
81  0 0 0 0 0 0 0 0 0 1  1 454
76  1 0 0 0 0 0 0 0 0 0  1 455
61  0 0 0 0 0 0 1 0 0 0  1 456
77  0 0 0 0 1 0 0 0 0 0  1 457
26  0 0 0 0 0 0 0 0 1 0  1 458
74  0 0 1 0 0 0 0 0 0 0  1 459
22  0 0 0 0 0 1 0 0 0 0  1 460
58  0 1 0 0 0 0 0 0 0 0  1 461
78  0 0 0 1 0 0 0 0 0 0  1 902
30  0 0 0 0 0 0 1 0 0 0  1 463
72  0 0 0 0 0 0 0 0 1 0  1 464
43  0 0 0 1 0 0 0 0 0 0  1 465
65  1 0 0 0 0 0 0 0 0 0  1 466
16  0 1 0 0 0 0 0 0 0 0  1 467
92  0 0 0 0 1 0 0 0 0 0  1 468
95  0 0 0 0 0 1 0 0 0 0  1 469
29  0 0 0 0 0 0 0 0 0 1  1 470
99  0 0 1 0 0 0 0 0 0 0  1 471
64  0 0 0 0 0 0 0 1 0 0  1 902
35  0 1 0 0 0 0 0 0 0 0  1 473
74  0 0 0 1 0 0 0 0 0 0  1 474
16  0 0 0 0 0 1 0 0 0 0  1 475
85  0 0 0 0 1 0 0 0 0 0  1 476
7  1 0 0 0 0 0 0 0 0 0  1 477
81  0 0 1 0 0 0 0 0 0 0  1 478
86  0 0 0 0 0 0 1 0 0 0  1 479
61  0 0 0 0 0 0 0 0 1 0  1 480
35  0 0 0 0 0 0 0 0 0 1  1 481
34  0 0 0 0 0 0 0 1 0 0  1 902
97  0 1 0 0 0 0 0 0 0 0  1 483
43  0 0 0 0 0 0 0 1 0 0  1 484
72  0 0 0 0 1 0 0 0 0 0  1 485
88  0 0 0 0 0 0 1 0 0 0  1 486
17  0 0 0 0 0 1 0 0 0 0  1 487
43  1 0 0 0 0 0 0 0 0 0  1 488
94  0 0 0 0 0 0 0 0 1 0  1 489
64  0 0 0 1 0 0 0 0 0 0  1 490
22  0 0 0 0 0 0 0 0 0 1  1 491
42  0 0 1 0 0 0 0 0 0 0  1 902
99  0 0 0 0 0 0 0 1 0 0  1 493
84  0 0 1 0 0 0 0 0 0 0  1 494
99  0 0 0 0 0 0 0 0 1 0  1 495
98  0 0 0 0 0 1 0 0 0 0  1 496
20  0 1 0 0 0 0 0 0 0 0  1 497
31  0 0 0 0 0 0 1 0 0 0  1 498
74  0 0 0 1 0 0 0 0 0 0  1 499
92  1 0 0 0 0 0 0 0 0 0  1 500
23  0 0 0 0 0 0 0 0 0 1  1 501
89  0 0 0 0 1 0 0 0 0 0  1 902
32  0 0 0 0 0 0 0 0 1 0  1 503
6  1 0 0 0 0 0 0 0 0 0  1 504
55  0 0 0 0 1 0 0 0 0 0  1 505
19  0 0 0 0 0 1 0 0 0 0  1 506
81  0 0 0 0 0 0 0 0 0 1  1 507
81  0 1 0 0 0 0 0 0 0 0  1 508
40  0 0 0 0 0 0 0 1 0 0  1 509
9  0 0 0 0 0 0 1 0 0 0  1 510
37  0 0 0 1 0 0 0 0 0 0  1 511
40  0 0 1 0 0 0 0 0 0 0  1 902
15  0 0 0 0 0 0 1 0 0 0  1 513
70  0 0 1 0 0 0 0 0 0 0  1 514
25  0 0 0 0 0 0 0 0 1 0  1 515
46  0 1 0 0 0 0 0 0 0 0  1 516
65  0 0 0 0 0 0 0 0 0 1  1 517
64  0 0 0 0 1 0 0 0 0 0  1 518
21  0 0 0 0 0 0 0 1 0 0  1 519
77  1 0 0 0 0 0 0 0 0 0  1 520
65  0 0 0 0 0 1 0 0 0 0  1 521
55  0 0 0 1 0 0 0 0 0 0  1 902
31  0 0 0 0 0 0 0 0 1 0  1 523
84  0 0 0 0 0 0 0 1 0 0  1 524
37  0 0 0 0 0 1 0 0 0 0  1 525
24  0 0 0 1 0 0 0 0 0 0  1 526
85  0 0 1 0 0 0 0 0 0 0  1 527
89  0 0 0 0 1 0 0 0 0 0  1 528
29  0 0 0 0 0 0 0 0 0 1  1 529
44  0 1 0 0 0 0 0 0 0 0  1 530
40  1 0 0 0 0 0 0 0 0 0  1 531
83  0 0 0 0 0 0 1 0 0 0  1 902
80  0 0 0 0 1 0 0 0 0 0  1 533
8  1 0 0 0 0 0 0 0 0 0  1 534
41  0 0 0 0 0 0 0 0 0 1  1 535
59  0 0 0 0 0 1 0 0 0 0  1 536
56  0 0 0 0 0 0 0 1 0 0  1 537
38  0 0 0 1 0 0 0 0 0 0  1 538
30  0 0 1 0 0 0 0 0 0 0  1 539
97  0 0 0 0 0 0 0 0 1 0  1 540
77  0 0 0 0 0 0 1 0 0 0  1 541
80  0 1 0 0 0 0 0 0 0 0  1 902
59  0 0 0 0 0 0 0 0 0 1  1 543
91  1 0 0 0 0 0 0 0 0 0  1 544
50  0 0 0 1 0 0 0 0 0 0  1 545
80  0 0 0 0 0 0 0 0 1 0  1 546
17  0 1 0 0 0 0 0 0 0 0  1 547
40  0 0 0 0 0 0 1 0 0 0  1 548
71  0 0 1 0 0 0 0 0 0 0  1 549
56  0 0 0 0 0 1 0 0 0 0  1 550
88  0 0 0 0 1 0 0 0 0 0  1 551
7  0 0 0 0 0 0 0 1 0 0  1 902
36  0 0 0 0 0 0 0 1 0 0  1 553
58  0 0 0 1 0 0 0 0 0 0  1 554
54  0 0 0 0 1 0 0 0 0 0  1 555
77  0 0 0 0 0 1 0 0 0 0  1 556
8  0 0 1 0 0 0 0 0 0 0  1 557
9  0 0 0 0 0 0 1 0 0 0  1 558
45  1 0 0 0 0 0 0 0 0 0  1 559
10  0 0 0 0 0 0 0 0 0 1  1 560
29  0 1 0 0 0 0 0 0 0 0  1 561
96  0 0 0 0 0 0 0 0 1 0  1 902
28  1 0 0 0 0 0 0 0 0 0  1 563
92  0 0 0 1 0 0 0 0 0 0  1 564
73  0 0 1 0 0 0 0 0 0 0  1 565
27  0 0 0 0 0 0 0 1 0 0  1 566
86  0 0 0 0 0 0 0 0 1 0  1 567
87  0 0 0 0 0 1 0 0 0 0  1 568
96  0 0 0 0 0 0 0 0 0 1  1 569
98  0 1 0 0 0 0 0 0 0 0  1 570
99  0 0 0 0 0 0 1 0 0 0  1 571
70  0 0 0 0 1 0 0 0 0 0  1 902
32  0 0 0 0 0 0 0 0 0 1  1 573
95  0 1 0 0 0 0 0 0 0 0  1 574
85  0 0 0 1 0 0 0 0 0 0  1 575
81  0 0 0 0 0 0 1 0 0 0  1 576
41  0 0 1 0 0 0 0 0 0 0  1 577
39  0 0 0 0 0 0 0 0 1 0  1 578
92  0 0 0 0 0 0 0 1 0 0  1 579
59  1 0 0 0 0 0 0 0 0 0  1 580
56  0 0 0 0 0 1 0 0 0 0  1 581
52  0 0 0 0 1 0 0 0 0 0  1 902
93  0 0 0 0 1 0 0 0 0 0  1 583
12  0 0 1 0 0 0 0 0 0 0  1 584
22  0 0 0 0 0 1 0 0 0 0  1 585
27  0 0 0 0 0 0 1 0 0 0  1 586
45  0 0 0 0 0 0 0 0 1 0  1 587
69  0 0 0 0 0 0 0 1 0 0  1 588
60  0 0 0 1 0 0 0 0 0 0  1 589
7  0 1 0 0 0 0 0 0 0 0  1 590
88  1 0 0 0 0 0 0 0 0 0  1 591
49  0 0 0 0 0 0 0 0 0 1  1 902
61  0 0 1 0 0 0 0 0 0 0  1 593
26  0 0 0 0 0 1 0 0 0 0  1 594
71  0 0 0 0 0 0 0 0 0 1  1 595
44  0 0 0 0 0 0 0 0 1 0  1 596
21  1 0 0 0 0 0 0 0 0 0  1 597
82  0 0 0 0 0 0 1 0 0 0  1 598
68  0 0 0 1 0 0 0 0 0 0  1 599
33  0 0 0 0 0 0 0 1 0 0  1 600
84  0 1 0 0 0 0 0 0 0 0  1 601
99  0 0 0 0 1 0 0 0 0 0  1 902
89  0 0 0 0 0 0 1 0 0 0  1 603
58  0 1 0 0 0 0 0 0 0 0  1 604
97  0 0 0 0 1 0 0 0 0 0  1 605
44  0 0 1 0 0 0 0 0 0 0  1 606
77  0 0 0 0 0 0 0 0 1 0  1 607
5  0 0 0 1 0 0 0 0 0 0  1 608
9  1 0 0 0 0 0 0 0 0 0  1 609
58  0 0 0 0 0 1 0 0 0 0  1 610
96  0 0 0 0 0 0 0 0 0 1  1 611
84  0 0 0 0 0 0 0 1 0 0  1 902
31  0 0 0 0 0 0 0 1 0 0  1 613
81  0 0 1 0 0 0 0 0 0 0  1 614
73  0 0 0 0 0 0 0 0 0 1  1 615
15  0 0 0 0 1 0 0 0 0 0  1 616
87  0 1 0 0 0 0 0 0 0 0  1 617
39  0 0 0 0 0 1 0 0 0 0  1 618
57  0 0 0 0 0 0 0 0 1 0  1 619
77  1 0 0 0 0 0 0 0 0 0  1 620
85  0 0 0 1 0 0 0 0 0 0  1 621
21  0 0 0 0 0 0 1 0 0 0  1 902
48  0 0 1 0 0 0 0 0 0 0  1 623
71  0 0 0 0 0 1 0 0 0 0  1 624
40  1 0 0 0 0 0 0 0 0 0  1 625
70  0 0 0 1 0 0 0 0 0 0  1 626
49  0 1 0 0 0 0 0 0 0 0  1 627
22  0 0 0 0 0 0 1 0 0 0  1 628
10  0 0 0 0 1 0 0 0 0 0  1 629
34  0 0 0 0 0 0 0 0 1 0  1 630
80  0 0 0 0 0 0 0 1 0 0  1 631
82  0 0 0 0 0 0 0 0 0 1  1 902
11  0 0 0 0 1 0 0 0 0 0  1 633
72  0 0 0 0 0 0 1 0 0 0  1 634
62  0 0 0 0 0 0 0 1 0 0  1 635
55  1 0 0 0 0 0 0 0 0 0  1 636
17  0 0 1 0 0 0 0 0 0 0  1 637
75  0 0 0 0 0 1 0 0 0 0  1 638
7  0 0 0 1 0 0 0 0 0 0  1 639
91  0 1 0 0 0 0 0 0 0 0  1 640
35  0 0 0 0 0 0 0 0 0 1  1 641
47  0 0 0 0 0 0 0 0 1 0  1 902
64  1 0 0 0 0 0 0 0 0 0  1 643
71  0 0 0 0 0 0 1 0 0 0  1 644
12  0 0 0 0 1 0 0 0 0 0  1 645
90  0 1 0 0 0 0 0 0 0 0  1 646
94  0 0 1 0 0 0 0 0 0 0  1 647
75  0 0 0 1 0 0 0 0 0 0  1 648
20  0 0 0 0 0 0 0 0 0 1  1 649
15  0 0 0 0 0 0 0 0 1 0  1 650
50  0 0 0 0 0 1 0 0 0 0  1 651
67  0 0 0 0 0 0 0 1 0 0  1 902
29  0 0 1 0 0 0 0 0 0 0  1 653
93  0 0 0 0 0 0 1 0 0 0  1 654
68  0 0 0 1 0 0 0 0 0 0  1 655
93  0 0 0 0 0 1 0 0 0 0  1 656
57  0 1 0 0 0 0 0 0 0 0  1 657
77  0 0 0 0 0 0 0 0 1 0  1 658
52  1 0 0 0 0 0 0 0 0 0  1 659
7  0 0 0 0 0 0 0 0 0 1  1 660
58  0 0 0 0 1 0 0 0 0 0  1 661
70  0 0 0 0 0 0 0 1 0 0  1 902
26  0 0 0 0 1 0 0 0 0 0  1 663
27  0 0 0 1 0 0 0 0 0 0  1 664
63  0 1 0 0 0 0 0 0 0 0  1 665
6  0 0 0 0 0 1 0 0 0 0  1 666
87  0 0 0 0 0 0 1 0 0 0  1 667
56  0 0 0 0 0 0 0 1 0 0  1 668
48  0 0 0 0 0 0 0 0 1 0  1 669
36  0 0 0 0 0 0 0 0 0 1  1 670
95  1 0 0 0 0 0 0 0 0 0  1 671
82  0 0 1 0 0 0 0 0 0 0  1 902
8  0 1 0 0 0 0 0 0 0 0  1 673
76  0 0 0 0 0 0 0 1 0 0  1 674
76  0 0 0 1 0 0 0 0 0 0  1 675
30  0 0 0 0 1 0 0 0 0 0  1 676
84  0 0 0 0 0 0 1 0 0 0  1 677
78  0 0 0 0 0 0 0 0 0 1  1 678
41  0 0 0 0 0 0 0 0 1 0  1 679
36  1 0 0 0 0 0 0 0 0 0  1 680
36  0 0 1 0 0 0 0 0 0 0  1 681
15  0 0 0 0 0 1 0 0 0 0  1 902
13  0 0 0 1 0 0 0 0 0 0  1 683
29  0 0 0 0 0 0 0 0 1 0  1 684
75  1 0 0 0 0 0 0 0 0 0  1 685
81  0 0 1 0 0 0 0 0 0 0  1 686
78  0 1 0 0 0 0 0 0 0 0  1 687
88  0 0 0 0 0 1 0 0 0 0  1 688
54  0 0 0 0 1 0 0 0 0 0  1 689
40  0 0 0 0 0 0 0 0 0 1  1 690
13  0 0 0 0 0 0 0 1 0 0  1 691
82  0 0 0 0 0 0 1 0 0 0  1 902
52  1 0 0 0 0 0 0 0 0 0  1 693
6  0 0 1 0 0 0 0 0 0 0  1 694
6  0 0 0 1 0 0 0 0 0 0  1 695
82  0 0 0 0 0 1 0 0 0 0  1 696
64  0 0 0 0 0 0 1 0 0 0  1 697
88  0 0 0 0 0 0 0 0 0 1  1 698
54  0 0 0 0 0 0 0 0 1 0  1 699
54  0 0 0 0 1 0 0 0 0 0  1 700
32  0 0 0 0 0 0 0 1 0 0  1 701
26  0 1 0 0 0 0 0 0 0 0  1 902
62  0 0 0 0 0 0 0 0 1 0  1 703
35  0 1 0 0 0 0 0 0 0 0  1 704
72  0 0 0 0 1 0 0 0 0 0  1 705
69  0 0 0 0 0 0 0 1 0 0  1 706
62  1 0 0 0 0 0 0 0 0 0  1 707
32  0 0 0 0 0 1 0 0 0 0  1 708
5  0 0 0 0 0 0 0 0 0 1  1 709
61  0 0 0 1 0 0 0 0 0 0  1 710
67  0 0 1 0 0 0 0 0 0 0  1 711
93  0 0 0 0 0 0 1 0 0 0  1 902
78  0 0 1 0 0 0 0 0 0 0  1 713
11  0 0 0 1 0 0 0 0 0 0  1 714
82  0 0 0 0 0 0 0 1 0 0  1 715
7  0 0 0 0 1 0 0 0 0 0  1 716
72  0 1 0 0 0 0 0 0 0 0  1 717
64  0 0 0 0 0 0 0 0 1 0  1 718
90  0 0 0 0 0 0 0 0 0 1  1 719
85  1 0 0 0 0 0 0 0 0 0  1 720
88  0 0 0 0 0 1 0 0 0 0  1 721
63  0 0 0 0 0 0 1 0 0 0  1 902
50  0 0 0 0 0 0 0 1 0 0  1 723
28  0 0 0 0 1 0 0 0 0 0  1 724
35  0 0 0 1 0 0 0 0 0 0  1 725
66  0 1 0 0 0 0 0 0 0 0  1 726
27  0 0 1 0 0 0 0 0 0 0  1 727
49  0 0 0 0 0 0 0 0 1 0  1 728
11  0 0 0 0 0 0 0 0 0 1  1 729
88  0 0 0 0 0 0 1 0 0 0  1 730
31  0 0 0 0 0 1 0 0 0 0  1 731
44  1 0 0 0 0 0 0 0 0 0  1 902
62  0 0 0 0 1 0 0 0 0 0  1 733
39  0 0 0 0 0 1 0 0 0 0  1 734
76  1 0 0 0 0 0 0 0 0 0  1 735
14  0 0 1 0 0 0 0 0 0 0  1 736
56  0 0 0 0 0 0 1 0 0 0  1 737
97  0 0 0 1 0 0 0 0 0 0  1 738
7  0 1 0 0 0 0 0 0 0 0  1 739
69  0 0 0 0 0 0 0 1 0 0  1 740
66  0 0 0 0 0 0 0 0 0 1  1 741
47  0 0 0 0 0 0 0 0 1 0  1 902
47  0 0 0 0 0 0 1 0 0 0  1 743
41  0 0 1 0 0 0 0 0 0 0  1 744
64  1 0 0 0 0 0 0 0 0 0  1 745
58  0 0 0 0 0 0 0 1 0 0  1 746
57  0 0 0 0 0 0 0 0 0 1  1 747
93  0 0 0 0 0 0 0 0 1 0  1 748
69  0 0 0 1 0 0 0 0 0 0  1 749
53  0 0 0 0 0 1 0 0 0 0  1 750
18  0 1 0 0 0 0 0 0 0 0  1 751
79  0 0 0 0 1 0 0 0 0 0  1 902
76  0 0 0 0 0 0 0 1 0 0  1 753
81  0 0 0 0 0 0 0 0 0 1  1 754
76  1 0 0 0 0 0 0 0 0 0  1 755
61  0 0 0 0 0 0 1 0 0 0  1 756
77  0 0 0 0 1 0 0 0 0 0  1 757
26  0 0 0 0 0 0 0 0 1 0  1 758
74  0 0 1 0 0 0 0 0 0 0  1 759
22  0 0 0 0 0 1 0 0 0 0  1 760
58  0 1 0 0 0 0 0 0 0 0  1 761
78  0 0 0 1 0 0 0 0 0 0  1 902
30  0 0 0 0 0 0 1 0 0 0  1 763
72  0 0 0 0 0 0 0 0 1 0  1 764
43  0 0 0 1 0 0 0 0 0 0  1 765
65  1 0 0 0 0 0 0 0 0 0  1 766
16  0 1 0 0 0 0 0 0 0 0  1 767
92  0 0 0 0 1 0 0 0 0 0  1 768
95  0 0 0 0 0 1 0 0 0 0  1 769
29  0 0 0 0 0 0 0 0 0 1  1 770
99  0 0 1 0 0 0 0 0 0 0  1 771
64  0 0 0 0 0 0 0 1 0 0  1 902
35  0 1 0 0 0 0 0 0 0 0  1 773
74  0 0 0 1 0 0 0 0 0 0  1 774
16  0 0 0 0 0 1 0 0 0 0  1 775
85  0 0 0 0 1 0 0 0 0 0  1 776
7  1 0 0 0 0 0 0 0 0 0  1 777
81  0 0 1 0 0 0 0 0 0 0  1 778
86  0 0 0 0 0 0 1 0 0 0  1 779
61  0 0 0 0 0 0 0 0 1 0  1 780
35  0 0 0 0 0 0 0 0 0 1  1 781
34  0 0 0 0 0 0 0 1 0 0  1 902
97  0 1 0 0 0 0 0 0 0 0  1 783
43  0 0 0 0 0 0 0 1 0 0  1 784
72  0 0 0 0 1 0 0 0 0 0  1 785
88  0 0 0 0 0 0 1 0 0 0  1 786
17  0 0 0 0 0 1 0 0 0 0  1 787
43  1 0 0 0 0 0 0 0 0 0  1 788
94  0 0 0 0 0 0 0 0 1 0  1 789
64  0 0 0 1 0 0 0 0 0 0  1 790
22  0 0 0 0 0 0 0 0 0 1  1 791
42  0 0 1 0 0 0 0 0 0 0  1 902
99  0 0 0 0 0 0 0 1 0 0  1 793
84  0 0 1 0 0 0 0 0 0 0  1 794
99  0 0 0 0 0 0 0 0 1 0  1 795
98  0 0 0 0 0 1 0 0 0 0  1 796
20  0 1 0 0 0 0 0 0 0 0  1 797
31  0 0 0 0 0 0 1 0 0 0  1 798
74  0 0 0 1 0 0 0 0 0 0  1 799
92  1 0 0 0 0 0 0 0 0 0  1 800
23  0 0 0 0 0 0 0 0 0 1  1 801
89  0 0 0 0 1 0 0 0 0 0  1 902
32  0 0 0 0 0 0 0 0 1 0  1 803
6  1 0 0 0 0 0 0 0 0 0  1 804
55  0 0 0 0 1 0 0 0 0 0  1 805
19  0 0 0 0 0 1 0 0 0 0  1 806
81  0 0 0 0 0 0 0 0 0 1  1 807
81  0 1 0 0 0 0 0 0 0 0  1 808
40  0 0 0 0 0 0 0 1 0 0  1 809
9  0 0 0 0 0 0 1 0 0 0  1 810
37  0 0 0 1 0 0 0 0 0 0  1 811
40  0 0 1 0 0 0 0 0 0 0  1 902
15  0 0 0 0 0 0 1 0 0 0  1 813
70  0 0 1 0 0 0 0 0 0 0  1 814
25  0 0 0 0 0 0 0 0 1 0  1 815
46  0 1 0 0 0 0 0 0 0 0  1 816
65  0 0 0 0 0 0 0 0 0 1  1 817
64  0 0 0 0 1 0 0 0 0 0  1 818
21  0 0 0 0 0 0 0 1 0 0  1 819
77  1 0 0 0 0 0 0 0 0 0  1 820
65  0 0 0 0 0 1 0 0 0 0  1 821
55  0 0 0 1 0 0 0 0 0 0  1 902
31  0 0 0 0 0 0 0 0 1 0  1 823
84  0 0 0 0 0 0 0 1 0 0  1 824
37  0 0 0 0 0 1 0 0 0 0  1 825
24  0 0 0 1 0 0 0 0 0 0  1 826
85  0 0 1 0 0 0 0 0 0 0  1 827
89  0 0 0 0 1 0 0 0 0 0  1 828
29  0 0 0 0 0 0 0 0 0 1  1 829
44  0 1 0 0 0 0 0 0 0 0  1 830
40  1 0 0 0 0 0 0 0 0 0  1 831
83  0 0 0 0 0 0 1 0 0 0  1 902
80  0 0 0 0 1 0 0 0 0 0  1 833
8  1 0 0 0 0 0 0 0 0 0  1 834
41  0 0 0 0 0 0 0 0 0 1  1 835
59  0 0 0 0 0 1 0 0 0 0  1 836
56  0 0 0 0 0 0 0 1 0 0  1 837
38  0 0 0 1 0 0 0 0 0 0  1 838
30  0 0 1 0 0 0 0 0 0 0  1 839
97  0 0 0 0 0 0 0 0 1 0  1 840
77  0 0 0 0 0 0 1 0 0 0  1 841
80  0 1 0 0 0 0 0 0 0 0  1 902
59  0 0 0 0 0 0 0 0 0 1  1 843
91  1 0 0 0 0 0 0 0 0 0  1 844
50  0 0 0 1 0 0 0 0 0 0  1 845
80  0 0 0 0 0 0 0 0 1 0  1 846
17  0 1 0 0 0 0 0 0 0 0  1 847
40  0 0 0 0 0 0 1 0 0 0  1 848
71  0 0 1 0 0 0 0 0 0 0  1 849
56  0 0 0 0 0 1 0 0 0 0  1 850
88  0 0 0 0 1 0 0 0 0 0  1 851
7  0 0 0 0 0 0 0 1 0 0  1 902
36  0 0 0 0 0 0 0 1 0 0  1 853
58  0 0 0 1 0 0 0 0 0 0  1 854
54  0 0 0 0 1 0 0 0 0 0  1 855
77  0 0 0 0 0 1 0 0 0 0  1 856
8  0 0 1 0 0 0 0 0 0 0  1 857
9  0 0 0 0 0 0 1 0 0 0  1 858
45  1 0 0 0 0 0 0 0 0 0  1 859
10  0 0 0 0 0 0 0 0 0 1  1 860
29  0 1 0 0 0 0 0 0 0 0  1 861
96  0 0 0 0 0 0 0 0 1 0  1 902
28  1 0 0 0 0 0 0 0 0 0  1 863
92  0 0 0 1 0 0 0 0 0 0  1 864
73  0 0 1 0 0 0 0 0 0 0  1 865
27  0 0 0 0 0 0 0 1 0 0  1 866
86  0 0 0 0 0 0 0 0 1 0  1 867
87  0 0 0 0 0 1 0 0 0 0  1 868
96  0 0 0 0 0 0 0 0 0 1  1 869
98  0 1 0 0 0 0 0 0 0 0  1 870
99  0 0 0 0 0 0 1 0 0 0  1 871
70  0 0 0 0 1 0 0 0 0 0  1 902
32  0 0 0 0 0 0 0 0 0 1  1 873
95  0 1 0 0 0 0 0 0 0 0  1 874
85  0 0 0 1 0 0 0 0 0 0  1 875
81  0 0 0 0 0 0 1 0 0 0  1 876
41  0 0 1 0 0 0 0 0 0 0  1 877
39  0 0 0 0 0 0 0 0 1 0  1 878
92  0 0 0 0 0 0 0 1 0 0  1 879
59  1 0 0 0 0 0 0 0 0 0  1 880
56  0 0 0 0 0 1 0 0 0 0  1 881
52  0 0 0 0 1 0 0 0 0 0  1 902
93  0 0 0 0 1 0 0 0 0 0  1 883
12  0 0 1 0 0 0 0 0 0 0  1 884
22  0 0 0 0 0 1 0 0 0 0  1 885
27  0 0 0 0 0 0 1 0 0 0  1 886
45  0 0 0 0 0 0 0 0 1 0  1 887
69  0 0 0 0 0 0 0 1 0 0  1 888
60  0 0 0 1 0 0 0 0 0 0  1 889
7  0 1 0 0 0 0 0 0 0 0  1 890
88  1 0 0 0 0 0 0 0 0 0  1 891
49  0 0 0 0 0 0 0 0 0 1  1 902
61  0 0 1 0 0 0 0 0 0 0  1 893
26  0 0 0 0 0 1 0 0 0 0  1 894
71  0 0 0 0 0 0 0 0 0 1  1 895
44  0 0 0 0 0 0 0 0 1 0  1 896
21  1 0 0 0 0 0 0 0 0 0  1 897
82  0 0 0 0 0 0 1 0 0 0  1 898
68  0 0 0 1 0 0 0 0 0 0  1 899
33  0 0 0 0 0 0 0 1 0 0  1 900
84  0 1 0 0 0 0 0 0 0 0  1 901
99  0 0 0 0 1 0 0 0 0 0  1 902
0  0 0 0 0 0 0 0 0 0 0  0
